243/surrogate_problem/log/surrogate2_17.log

Gurobi 10.0.2 (linux64) logging started Thu Sep  7 10:02:50 2023

Set parameter LogFile to value "../surrogate_problem/log/surrogate2_17.log"
Set parameter Threads to value 30
Gurobi Optimizer version 10.0.2 build v10.0.2rc0 (linux64)

CPU model: Intel(R) Xeon(R) Platinum 8280 CPU @ 2.70GHz, instruction set [SSE2|AVX|AVX2|AVX512]
Thread count: 112 physical cores, 112 logical processors, using up to 30 threads

Optimize a model with 541 rows, 1348 columns and 140708 nonzeros
Model fingerprint: 0xbc860b02
Variable types: 321 continuous, 1027 integer (1027 binary)
Coefficient statistics:
  Matrix range     [4e-07, 1e+05]
  Objective range  [3e-01, 3e+01]
  Bounds range     [1e+00, 1e+00]
  RHS range        [3e-02, 1e+05]
Found heuristic solution: objective 177906.71167
Presolve removed 268 rows and 268 columns
Presolve time: 0.10s
Presolved: 273 rows, 1080 columns, 59494 nonzeros
Variable types: 142 continuous, 938 integer (938 binary)

Root relaxation: objective 1.417483e+05, 143 iterations, 0.00 seconds (0.01 work units)

    Nodes    |    Current Node    |     Objective Bounds      |     Work
 Expl Unexpl |  Obj  Depth IntInf | Incumbent    BestBd   Gap | It/Node Time

     0     0 141748.271    0   12 177906.712 141748.271  20.3%     -    0s
H    0     0                    141748.36594 141748.271  0.00%     -    0s
     0     0 141748.271    0   12 141748.366 141748.271  0.00%     -    0s

Explored 1 nodes (143 simplex iterations) in 0.17 seconds (0.12 work units)
Thread count was 30 (of 112 available processors)

Solution count 2: 141748 177907 

Optimal solution found (tolerance 1.00e-04)
Best objective 1.417483659445e+05, best bound 1.417483659445e+05, gap 0.0000%

Gurobi 10.0.2 (linux64) logging started Fri Sep  8 15:12:44 2023

Set parameter LogFile to value "../surrogate_problem/log/surrogate2_17.log"
Gurobi Optimizer version 10.0.2 build v10.0.2rc0 (linux64)

CPU model: Intel(R) Xeon(R) Platinum 8280 CPU @ 2.70GHz, instruction set [SSE2|AVX|AVX2|AVX512]
Thread count: 112 physical cores, 112 logical processors, using up to 30 threads

Optimize a model with 541 rows, 1348 columns and 140708 nonzeros
Model fingerprint: 0xbc860b02
Variable types: 321 continuous, 1027 integer (1027 binary)
Coefficient statistics:
  Matrix range     [4e-07, 1e+05]
  Objective range  [3e-01, 3e+01]
  Bounds range     [1e+00, 1e+00]
  RHS range        [3e-02, 1e+05]
Found heuristic solution: objective 177906.71167
Presolve removed 268 rows and 268 columns
Presolve time: 0.10s
Presolved: 273 rows, 1080 columns, 59494 nonzeros
Variable types: 142 continuous, 938 integer (938 binary)

Root relaxation: objective 1.417483e+05, 143 iterations, 0.00 seconds (0.01 work units)

    Nodes    |    Current Node    |     Objective Bounds      |     Work
 Expl Unexpl |  Obj  Depth IntInf | Incumbent    BestBd   Gap | It/Node Time

     0     0 141748.271    0   12 177906.712 141748.271  20.3%     -    0s
H    0     0                    141748.36594 141748.271  0.00%     -    0s
     0     0 141748.271    0   12 141748.366 141748.271  0.00%     -    0s

Explored 1 nodes (143 simplex iterations) in 0.19 seconds (0.12 work units)
Thread count was 30 (of 112 available processors)

Solution count 2: 141748 177907 

Optimal solution found (tolerance 1.00e-04)
Best objective 1.417483659445e+05, best bound 1.417483659445e+05, gap 0.0000%
